% demand
num_movements = 23;
loading_factor = [1150, 1700, 850, 2000, 1200, 850, 1150, 1200, 1800, 1550, 1850, 1350, 1150, 1950, 1750, 800, 1550, 1850, 1550, 1900, 1750, 1300, 1850];
pickup_time = [0, 0, 0, 0, 0, 1, 1, 1, 1, 2, 2, 3, 3, 3, 3, 3, 5, 5, 6, 6, 7, 7, 8];
delivery_time = [1, 1, 1, 1, 1, 2, 3, 2, 3, 3, 3, 5, 6, 5, 6, 5, 9, 9, 7, 7, 9, 8, 9];

% transporter definition
total_capacity = 7000;
num_decks = 3;
capacity = [3000, 1000, 3000];

% ways out of decks
num_ways_out = 1;
paths_out = array3d(decks, ways_out, decks, [
% ways out of deck d1
2, 3, 0, 

% ways out of deck d2
3, 0, 0, 

% ways out of deck d3
0, 0, 0,	

]);

